Problem:    
Rows:       248
Columns:    89 (72 integer, 72 binary)
Non-zeros:  820
Status:     INTEGER OPTIMAL
Objective:  value = 21.275402 (MINimum)

   No.   Row name        Activity     Lower bound   Upper bound
------ ------------    ------------- ------------- -------------
     1 r.5                   521.275             0               
     2 r.6                  -485.945      -496.713               
     3 r.7                   21.2754             0               
     4 r.8                  -455.897      -489.255               
     5 r.9                   521.275             0               
     6 r.10                 -495.772      -496.022               
     7 r.11                  21.2754             0               
     8 r.12                 -466.642       -489.91               
     9 r.13                  21.2754             0               
    10 r.14                 -477.713      -494.768               
    11 r.15                  521.275             0               
    12 r.16                 -481.981      -495.669               
    13 r.17                  21.2754             0               
    14 r.18                 -480.545      -497.601               
    15 r.19                  521.275             0               
    16 r.20                 -489.312      -495.562               
    17 r.21                  21.2754             0               
    18 r.22                  10.7681       -496.46               
    19 r.23                  521.275             0               
    20 r.24                 -486.312      -498.081               
    21 r.25                  21.2754             0               
    22 r.26                   0.2502      -490.854               
    23 r.27                  521.275             0               
    24 r.28                 -479.732      -499.788               
    25 r.29                  21.2754             0               
    26 r.30                  10.7681      -491.228               
    27 r.31                  521.275             0               
    28 r.32                 -478.725      -499.743               
    29 r.33                  521.275             0               
    30 r.34                  -499.75       -499.75               
    31 r.35                  21.2754             0               
    32 r.36                 -499.422      -499.422               
    33 r.37                        1             1             = 
    34 r.38                        1             1             = 
    35 r.39                        1             1             = 
    36 r.40                        1             1             = 
    37 r.41                        1             1             = 
    38 r.42                        1             1             = 
    39 r.43                        1             1             = 
    40 r.44                        1             1             = 
    41 r.45                  487.173       3.97805               
    42 r.46                 -490.173      -496.713               
    43 r.47                  492.255       10.0904               
    44 r.48                 -489.255      -489.255               
    45 r.49                  5.23215       5.23215               
    46 r.50                 -5.23215      -496.713               
    47 r.51                  476.916       4.33075               
    48 r.52                 -476.916      -489.255               
    49 r.53                  2.39925       2.39925               
    50 r.54                 -2.39925      -496.713               
    51 r.55                  469.585        4.4377               
    52 r.56                 -469.585      -489.255               
    53 r.57                  493.713       3.53988               
    54 r.58                 -493.713      -496.713               
    55 r.59                  472.585        1.9189               
    56 r.60                 -472.585      -489.255               
    57 r.61                 -16.8051      -487.854               
    58 r.62                 -496.788      -496.788               
    59 r.63                  459.148      -487.854               
    60 r.64                 -20.8349      -496.788               
    61 r.65                  493.713       8.77188               
    62 r.66                 -493.713      -496.713               
    63 r.67                  480.173       0.25675               
    64 r.68                 -480.173      -489.255               
    65 r.69                 -483.195      -493.713               
    66 r.70                 -459.148      -486.255               
    67 r.71                   16.477      -493.713               
    68 r.72                  40.5245      -486.255               
    69 r.73                  6.82703       3.28715               
    70 r.74                 -9.82703      -496.022               
    71 r.75                  13.7446       10.7446               
    72 r.76                 -10.7446       -489.91               
    73 r.77                  15.0592       5.23215               
    74 r.78                 -15.0592      -496.022               
    75 r.79                  487.661       4.33075               
    76 r.80                 -487.661       -489.91               
    77 r.81                  12.2263       2.39925               
    78 r.82                 -12.2263      -496.022               
    79 r.83                   480.33        4.4377               
    80 r.84                  -480.33       -489.91               
    81 r.85                  3.53988       3.53988               
    82 r.86                 -3.53988      -496.022               
    83 r.87                   483.33        1.9189               
    84 r.88                  -483.33       -489.91               
    85 r.89                  493.022        9.1458               
    86 r.90                 -493.022      -496.022               
    87 r.91                   489.91        0.2125               
    88 r.92                  -489.91       -489.91               
    89 r.93                  3.53988      -488.228               
    90 r.94                 -485.953      -496.743               
    91 r.95                   480.41      -488.228               
    92 r.96                 -9.08273      -496.743               
    93 r.97                 -493.022      -493.022               
    94 r.98                 -469.892       -486.91               
    95 r.99                  6.65002      -493.022               
    96 r.100                 29.7799       -486.91               
    97 r.101                 491.768       3.28715               
    98 r.102                -494.768      -494.768               
    99 r.103                  26.084       10.7446               
   100 r.104                 -23.084      -495.669               
   101 r.105                 481.941       3.97805               
   102 r.106                -484.941      -494.768               
   103 r.107                 15.3395       10.0904               
   104 r.108                -12.3395      -495.669               
   105 r.109                 2.83289      -491.768               
   106 r.110                -1.43588      -492.669               
   107 r.111                  -488.4      -491.768               
   108 r.112                -492.669      -492.669               
   109 r.113                 488.481       3.53988               
   110 r.114                -488.481      -494.768               
   111 r.115                 495.669        1.9189               
   112 r.116                -495.669      -495.669               
   113 r.117                 477.963        9.1458               
   114 r.118                -477.963      -494.768               
   115 r.119                 2.24913        0.2125               
   116 r.120                -2.24913      -495.669               
   117 r.121                 488.481      -488.228               
   118 r.122                -1.01202      -496.743               
   119 r.123                -7.25052      -488.228               
   120 r.124                -496.743      -496.743               
   121 r.125                -477.963      -491.768               
   122 r.126                -482.232      -492.669               
   123 r.127                 21.7092      -491.768               
   124 r.128                 17.4404      -492.669               
   125 r.129                 494.601       3.28715               
   126 r.130                -497.601      -497.601               
   127 r.131                 33.4148       10.7446               
   128 r.132                -30.4148      -495.562               
   129 r.133                 484.774       3.97805               
   130 r.134                -487.774      -497.601               
   131 r.135                 22.6702       10.0904               
   132 r.136                -19.6702      -495.562               
   133 r.137                 2.83289      -491.768               
   134 r.138                -1.43588      -492.669               
   135 r.139                  -488.4      -491.768               
   136 r.140                -492.669      -492.669               
   137 r.141                 491.314       3.53988               
   138 r.142                -491.314      -497.601               
   139 r.143                       3        1.9189               
   140 r.144                      -3      -495.562               
   141 r.145                 480.796        9.1458               
   142 r.146                -480.796      -497.601               
   143 r.147                 9.57988        0.2125               
   144 r.148                -9.57988      -495.562               
   145 r.149                 491.314      -488.228               
   146 r.150                 1.82087      -496.743               
   147 r.151                0.080232      -488.228               
   148 r.152                -489.412      -496.743               
   149 r.153                -480.796      -491.601               
   150 r.154                -489.562      -489.562               
   151 r.155                 18.8763      -491.601               
   152 r.156                 10.1097      -489.562               
   153 r.157                 3.28715       3.28715               
   154 r.158                -6.28715       -496.46               
   155 r.159                 30.4148       10.7446               
   156 r.160                -27.4148      -498.081               
   157 r.161                  493.46       3.97805               
   158 r.162                 -496.46       -496.46               
   159 r.163                 19.6702       10.0904               
   160 r.164                -16.6702      -498.081               
   161 r.165                 11.5193       5.23215               
   162 r.166                -11.5193       -496.46               
   163 r.167                 4.33075       4.33075               
   164 r.168                -4.33075      -498.081               
   165 r.169                  8.6864       2.39925               
   166 r.170                 -8.6864       -496.46               
   167 r.171                     497        4.4377               
   168 r.172                    -497      -498.081               
   169 r.173                -10.5179      -487.854               
   170 r.174                  -490.5      -496.788               
   171 r.175                -13.4377      -487.854               
   172 r.176                 -493.42      -496.788               
   173 r.177                       0      -488.228               
   174 r.178                -489.493      -496.743               
   175 r.179                -2.91977      -488.228               
   176 r.180                -492.412      -496.743               
   177 r.181                 10.5179       -490.46               
   178 r.182                -486.562      -492.081               
   179 r.183                  510.19       -490.46               
   180 r.184                 13.1097      -492.081               
   181 r.185                -16.8051      -487.854               
   182 r.186                -496.788      -496.788               
   183 r.187                 459.148      -487.854               
   184 r.188                -20.8349      -496.788               
   185 r.189                 3.97805       3.97805               
   186 r.190                -6.97805      -490.854               
   187 r.191                 13.0904       10.0904               
   188 r.192                -10.0904      -499.788               
   189 r.193                 22.0372       5.23215               
   190 r.194                -22.0372      -490.854               
   191 r.195                 497.751       4.33075               
   192 r.196                -497.751      -499.788               
   193 r.197                 19.2043       2.39925               
   194 r.198                -19.2043      -490.854               
   195 r.199                  490.42        4.4377               
   196 r.200                 -490.42      -499.788               
   197 r.201                -10.5179      -487.854               
   198 r.202                  -490.5      -496.788               
   199 r.203                -13.4377      -487.854               
   200 r.204                 -493.42      -496.788               
   201 r.205                 10.5179       8.77188               
   202 r.206                -10.5179      -490.854               
   203 r.207                 1.00762       0.25675               
   204 r.208                -1.00762      -499.788               
   205 r.209                 3.28715       3.28715               
   206 r.210                -6.28715      -491.228               
   207 r.211                 22.8273       10.7446               
   208 r.212                -19.8273      -499.743               
   209 r.213                 3.53988      -488.228               
   210 r.214                -485.953      -496.743               
   211 r.215                  480.41      -488.228               
   212 r.216                -9.08273      -496.743               
   213 r.217                 488.481      -488.228               
   214 r.218                -1.01202      -496.743               
   215 r.219                -7.25052      -488.228               
   216 r.220                -496.743      -496.743               
   217 r.221                 491.314      -488.228               
   218 r.222                 1.82087      -496.743               
   219 r.223                0.080232      -488.228               
   220 r.224                -489.412      -496.743               
   221 r.225                       0      -488.228               
   222 r.226                -489.493      -496.743               
   223 r.227                -2.91977      -488.228               
   224 r.228                -492.412      -496.743               
   225 r.229                 489.482        9.1458               
   226 r.230                -489.482      -491.228               
   227 r.231                 498.992        0.2125               
   228 r.232                -498.992      -499.743               
   229 r.233                -483.195      -493.713               
   230 r.234                -459.148      -486.255               
   231 r.235                  16.477      -493.713               
   232 r.236                 40.5245      -486.255               
   233 r.237                -493.022      -493.022               
   234 r.238                -469.892       -486.91               
   235 r.239                 6.65002      -493.022               
   236 r.240                 29.7799       -486.91               
   237 r.241                -477.963      -491.768               
   238 r.242                -482.232      -492.669               
   239 r.243                 21.7092      -491.768               
   240 r.244                 17.4404      -492.669               
   241 r.245                -480.796      -491.601               
   242 r.246                -489.562      -489.562               
   243 r.247                 18.8763      -491.601               
   244 r.248                 10.1097      -489.562               
   245 r.249                 10.5179       -490.46               
   246 r.250                -486.562      -492.081               
   247 r.251                  510.19       -490.46               
   248 r.252                 13.1097      -492.081               

   No. Column name       Activity     Lower bound   Upper bound
------ ------------    ------------- ------------- -------------
     1 tt                    21.2754             0               
     2 s_1_1        *              1             0             1 
     3 t_1_1                 4.22012             0               
     4 s_1_6        *              0             0             1 
     5 s_2_1        *              0             0             1 
     6 t_2_1                 480.173             0               
     7 s_2_6        *              1             0             1 
     8 s_1_2        *              1             0             1 
     9 t_1_2                 14.0471             0               
    10 s_1_7        *              0             0             1 
    11 s_2_2        *              0             0             1 
    12 t_2_2                 490.917             0               
    13 s_2_7        *              1             0             1 
    14 s_1_3        *              0             0             1 
    15 t_1_3                 498.988             0               
    16 s_2_3        *              1             0             1 
    17 t_2_3                 3.25675             0               
    18 s_1_4        *              0             0             1 
    19 t_1_4                 501.821             0               
    20 s_2_4        *              1             0             1 
    21 t_2_4                 10.5875             0               
    22 s_1_5        *              0             0             1 
    23 t_1_5                 10.5073             0               
    24 s_2_5        *              1             0             1 
    25 t_2_5                  7.5875             0               
    26 t_1_6                 21.0252             0               
    27 t_2_6                 1.00762             0               
    28 t_1_7                 10.5073             0               
    29 t_2_7                       0             0               
    30 s_1_8        *              1             0             1 
    31 t_1_8                 21.0252             0               
    32 s_2_8        *              0             0             1 
    33 t_2_8                 520.697             0               
    34 u_1_1_2      *              1             0             1 
    35 u_2_1_2      *              1             0             1 
    36 u_1_1_3      *              1             0             1 
    37 u_2_1_3      *              0             0             1 
    38 u_1_1_4      *              1             0             1 
    39 u_2_1_4      *              0             0             1 
    40 u_1_1_5      *              1             0             1 
    41 u_2_1_5      *              0             0             1 
    42 u_1_1_7      *              1             0             1 
    43 u_2_1_7      *              0             0             1 
    44 u_1_2_1      *              0             0             1 
    45 u_2_2_1      *              0             0             1 
    46 u_1_2_3      *              1             0             1 
    47 u_2_2_3      *              0             0             1 
    48 u_1_2_4      *              1             0             1 
    49 u_2_2_4      *              0             0             1 
    50 u_1_2_5      *              0             0             1 
    51 u_2_2_5      *              0             0             1 
    52 u_1_2_6      *              1             0             1 
    53 u_2_2_6      *              0             0             1 
    54 u_1_3_1      *              0             0             1 
    55 u_2_3_1      *              1             0             1 
    56 u_1_3_2      *              0             0             1 
    57 u_2_3_2      *              1             0             1 
    58 u_1_3_5      *              0             0             1 
    59 u_2_3_5      *              1             0             1 
    60 u_1_3_6      *              0             0             1 
    61 u_2_3_6      *              0             0             1 
    62 u_1_4_1      *              0             0             1 
    63 u_2_4_1      *              1             0             1 
    64 u_1_4_2      *              0             0             1 
    65 u_2_4_2      *              1             0             1 
    66 u_1_4_5      *              0             0             1 
    67 u_2_4_5      *              0             0             1 
    68 u_1_4_6      *              0             0             1 
    69 u_2_4_6      *              0             0             1 
    70 u_1_5_1      *              0             0             1 
    71 u_2_5_1      *              1             0             1 
    72 u_1_5_2      *              1             0             1 
    73 u_2_5_2      *              1             0             1 
    74 u_1_5_3      *              1             0             1 
    75 u_2_5_3      *              0             0             1 
    76 u_1_5_4      *              1             0             1 
    77 u_2_5_4      *              1             0             1 
    78 u_1_6_2      *              0             0             1 
    79 u_2_6_2      *              1             0             1 
    80 u_1_6_3      *              1             0             1 
    81 u_2_6_3      *              1             0             1 
    82 u_1_6_4      *              1             0             1 
    83 u_2_6_4      *              1             0             1 
    84 u_1_6_7      *              0             0             1 
    85 u_2_6_7      *              0             0             1 
    86 u_1_7_1      *              0             0             1 
    87 u_2_7_1      *              1             0             1 
    88 u_1_7_6      *              1             0             1 
    89 u_2_7_6      *              1             0             1 

Integer feasibility conditions:

KKT.PE: max.abs.err = 1.14e-13 on row 85
        max.rel.err = 1.10e-16 on row 85
        High quality

KKT.PB: max.abs.err = 1.24e-14 on row 49
        max.rel.err = 3.66e-15 on row 49
        High quality

End of output
